language ESSENCE' 1.0

letting n_classes be 17
letting n_options be 5
letting n_cars be 200
letting quantity_Function1D be [2, 2, 4, 1, 30, 1, 1, 39, 54, 1, 2, 3, 1, 53, 1, 1, 4; int(1..17)]
letting usage_RelationAsSet_Explicit_1 be
        [1, 1, 1, 2, 2, 3, 3, 4, 4, 4, 5, 6, 6, 6, 7, 7, 7, 8, 9, 10, 10, 10, 11, 11, 12, 12, 13, 13, 13, 14, 15, 15,
         16, 16, 17;
             int(1..35)]
letting usage_RelationAsSet_Explicit_2 be
        [1, 3, 4, 1, 5, 1, 2, 1, 2, 3, 5, 1, 2, 4, 1, 3, 5, 3, 4, 2, 3, 5, 3, 4, 1, 3, 1, 4, 5, 2, 2, 3, 2, 5, 1;
             int(1..35)]
letting blksize_Function1D be [2, 3, 3, 5, 5; int(1..5)]
letting maxcars_Function1D be [1, 2, 1, 2, 1; int(1..5)]
letting fin1 be 17
letting fin2 be 54
letting fin3 be 5
letting fin4 be 2
letting fin5 be 5
letting fin6 be 5
letting fin7 be 35
